letting n_nurses=25
letting n_days=7
letting n_shift_types=4
letting max_covers=10
letting t_covers=87
letting covers=[6,8,0,0,10,1,4,0,7,0,9,0,9,5,0,0,6,0,4,0,5,3,0,0,6,4,0,0]
letting prefes=[1,4,4,4,4,4,3,4,4,4,1,4,4,4,1,4,3,1,4,4,4,1,1,4,1,4,4,4,1,4,4,2,4,4,3,4,4,4,4,4,4,4,4,2,3,1,4,4,4,4,4,4,1,4,4,2,1,4,4,4,2,3,4,4,4,4,1,4,2,4,1,4,4,1,4,4,4,4,1,4,1,4,4,4,4,4,4,4,4,4,3,4,4,4,1,4,4,4,4,4,4,4,4,1,4,4,4,4,4,4,4,4,4,4,4,2,2,3,4,4,4,4,1,4,4,4,4,2,4,1,4,4,4,4,1,4,4,4,4,2,4,4,4,4,4,3,4,4,4,1,1,4,4,4,1,4,4,4,4,4,4,1,1,4,4,4,4,4,4,4,1,4,4,3,4,4,4,4,4,4,4,4,4,4,4,4,1,4,1,4,1,4,4,4,1,4,4,1,4,4,4,4,4,1,1,1,1,1,2,1,4,4,4,4,4,4,4,4,1,1,4,1,4,4,4,4,4,2,4,4,4,4,4,4,1,4,4,4,1,2,4,4,4,1,1,1,1,1,4,4,4,2,1,4,4,4,4,4,4,4,4,4,1,4,4,4,4,4,4,4,1,4,4,4,1,4,1,4,4,4,4,1,4,4,4,4,4,4,4,4,1,4,4,1,4,4,4,4,4,4,4,4,4,4,4,1,4,4,4,4,4,4,4,4,4,4,4,4,1,4,4,4,4,4,3,4,1,4,1,4,1,4,4,4,4,4,4,4,1,4,2,4,4,4,4,4,1,4,2,4,4,4,4,4,4,4,4,4,1,4,4,4,1,4,4,4,1,4,4,4,4,4,4,4,1,4,4,4,4,4,4,4,4,4,4,4,4,4,4,4,1,4,4,4,4,4,4,4,4,4,4,4,4,4,2,4,4,4,4,4,4,1,4,1,1,4,4,4,4,4,4,4,1,4,4,4,4,1,1,4,1,1,4,4,4,4,4,4,1,4,4,4,1,1,4,4,1,4,4,4,4,4,4,4,3,4,4,1,1,4,4,4,4,4,4,1,1,4,4,4,4,4,4,4,4,4,4,1,4,4,4,4,4,1,1,1,1,1,4,1,4,4,4,4,4,4,1,4,1,4,4,1,4,4,4,4,4,4,4,4,4,1,1,4,1,1,4,4,4,4,4,4,4,4,4,4,1,4,4,4,4,4,1,1,4,2,2,3,3,4,4,4,4,4,4,1,4,2,3,4,4,4,4,4,1,1,1,1,4,2,4,1,4,4,4,4,4,4,4,4,1,4,2,1,1,4,4,4,4,4,4,4,1,1,4,1,4,4,4,4,4,4,2,4,4,4,4,4,1,4,4,4,4,4,4,4,4,1,1,4,1,4,4,4,4,4,4,4,4,4,4,4,4,1,1,4,4,1,4,4,4,4,4,4,4,4,4,1,1,4,4,4,4,4,4,4,1,2,4,4,4,4,4,1,1,4,4,4,4,2,4,4,4,1,4,4,1,4,4,4,1,2,4,4,4,4,4,4,4,4,4,4,1,4,4,4,4,4,3,4,4,4,4,4,1,4,4,4,4,4]
letting ub =  388
